 10 6
 0 333 1 991 2 996 3 123 4 145 5 234
 0 333 1 111 2 663 3 456 4 785 5 532
 0 252 1 222 2 222 3 789 4 214 5 586
 0 222 1 204 2 114 3 876 4 752 5 532
 0 255 1 477 2 123 3 543 4 143 5 142
 0 555 1 566 2 456 3 210 4 698 5 573
 0 558 1 899 2 789 3 124 4 532 5  12
 0 888 1 965 2 876 3 537 4 145 5  14
 0 889 1 588 2 543 3 854 4 247 5 527
 0 999 1 889 2 210 3 632 4 451 5 856

